# Solution for model GasLib-40
# Objective value = 1.1657508613504586e+02
loadshed[innode_1] 0
loadshed[innode_2] 0
loadshed[innode_3] 0
loadshed[innode_4] 0
loadshed[innode_5] 0
loadshed[innode_6] 0
loadshed[innode_7] 0
loadshed[innode_8] 0
loadshed[source_1] 1.2726411431927287e-01
loadshed[source_2] 2.6678159541317303e-01
loadshed[source_3] 3.4334995920874711e-01
loadshed[sink_1] 1
loadshed[sink_2] 0
loadshed[sink_3] 0
loadshed[sink_4] 1
loadshed[sink_5] 0
loadshed[sink_6] 0
loadshed[sink_7] 0
loadshed[sink_8] 0
loadshed[sink_9] 1
loadshed[sink_10] 0
loadshed[sink_11] 0
loadshed[sink_12] 1
loadshed[sink_13] 0
loadshed[sink_14] 0
loadshed[sink_15] 0
loadshed[sink_16] 0
loadshed[sink_17] 0
loadshed[sink_18] 1.4598224964287523e-02
loadshed[sink_19] 0
loadshed[sink_20] 0
loadshed[sink_21] 1
loadshed[sink_22] 1.7029535761572562e-01
loadshed[sink_23] 0
loadshed[sink_24] 9.4326455051833280e-01
loadshed[sink_25] 0
loadshed[sink_26] 1
loadshed[sink_27] 0
loadshed[sink_28] 0
loadshed[sink_29] 0
flow[source_1,sink_3] 1.3797105859390106e+02
flow[innode_1,sink_16] 1.6354166666666970e+01
flow[innode_6,sink_13] 1.0669179315189226e+01
flow[sink_13,sink_14] -5.6849873514774423e+00
flow[sink_14,sink_10] -2.2039154018144110e+01
flow[sink_25,sink_26] 0
flow[sink_26,sink_9] 0
flow[sink_9,sink_18] 0
flow[sink_26,sink_4] 0
flow[sink_4,sink_20] 0
flow[sink_18,sink_6] -1.6115424862559976e+01
flow[sink_25,innode_8] -1.0526272526056469e+02
flow[sink_6,sink_7] -4.6038719534886120e+01
flow[sink_6,sink_22] 1.3569128005659488e+01
flow[sink_7,sink_24] 9.2786099673143307e-01
flow[sink_22,sink_1] 0
flow[sink_24,sink_21] 0
flow[sink_21,sink_12] 0
flow[sink_7,sink_5] -6.3320747198284216e+01
flow[sink_5,sink_17] -79.6749138649509
flow[sink_17,sink_4] 0
flow[sink_17,sink_8] -9.6029080531617367e+01
flow[sink_3,sink_23] 16.3541666666697
flow[sink_8,sink_20] -1.1238324719828404e+02
flow[sink_25,sink_20] 1.2873741386495087e+02
flow[sink_25,sink_15] -5.0498034586242625e+01
flow[sink_15,sink_29] -4.0177167353721131e+01
flow[sink_29,sink_28] 1.6354166666667879e+01
flow[sink_29,sink_2] 4.3029200565854836e+01
flow[sink_2,sink_15] 2.6675033899188165e+01
flow[sink_29,innode_7] -1.1591470125291052e+02
flow[innode_4,sink_19] 3.9602487038054676e+01
flow[sink_19,innode_3] 3.4697307040935094e+01
flow[innode_4,innode_5] 64.2075003134236
flow[sink_27,innode_5] -64.2075003134236
flow[sink_27,sink_19] 4.7853333646756930e+01
flow[sink_10,sink_11] 3.2708333333333641e+01
flow[sink_10,innode_2] -3.6404346977209379e+01
flow[sink_10,innode_3] -3.4697307040935094e+01
flow[innode_6,sink_25] -1.0669179315189226e+01
flow[sink_11,innode_1] 1.6354166666666970e+01
flow[sink_19,innode_2] 3.6404346977209379e+01
flow[source_3,innode_4] 1.0380998735147827e+02
flow[source_2,innode_7] 1.1591470125291052e+02
flow[sink_3,innode_8] 1.0526272526056469e+02
pressure[innode_1] 7.7333030942149819e+01
pressure[innode_2] 79.4088523423763
pressure[innode_3] 7.9332019084977730e+01
pressure[innode_4] 81.01325
pressure[innode_5] 8.0969084695612452e+01
pressure[innode_6] 7.6490954844344913e+01
pressure[innode_7] 81.01325
pressure[innode_8] 8.0552065457975388e+01
pressure[source_1] 81.01325
pressure[source_2] 81.01325
pressure[source_3] 81.01325
pressure[sink_1] 1.0132500000000002e+00
pressure[sink_2] 7.6823007625073757e+01
pressure[sink_3] 8.0552065457975388e+01
pressure[sink_4] 1.0132500000004119e+00
pressure[sink_5] 2.8410185296063240e+01
pressure[sink_6] 1.4435798257554819e+00
pressure[sink_7] 2.0755817052713441e+00
pressure[sink_8] 3.7968817158057767e+01
pressure[sink_9] 1.0132499999998061e+00
pressure[sink_10] 7.7484732249753364e+01
pressure[sink_11] 7.7333030942149819e+01
pressure[sink_12] 1.01325
pressure[sink_13] 7.6432137441765775e+01
pressure[sink_14] 76.4423112108851
pressure[sink_15] 7.6735919518475683e+01
pressure[sink_16] 7.6311381107332139e+01
pressure[sink_17] 3.4345390472183347e+01
pressure[sink_18] 1.0132499999996889e+00
pressure[sink_19] 79.4088523423763
pressure[sink_20] 4.5800349011712278e+01
pressure[sink_21] 1.01325
pressure[sink_22] 1.0132500000000002e+00
pressure[sink_23] 80.3873474463156
pressure[sink_24] 1.01325
pressure[sink_25] 7.6490954844344913e+01
pressure[sink_26] 1.01325
pressure[sink_27] 8.0436281085714668e+01
pressure[sink_28] 7.7617703563187916e+01
pressure[sink_29] 7.7912985836805092e+01
interdiction[source_1,sink_3] 0
interdiction[innode_1,sink_16] 0
interdiction[innode_6,sink_13] 0
interdiction[sink_13,sink_14] 0
interdiction[sink_14,sink_10] 0
interdiction[sink_25,sink_26] 1
interdiction[sink_26,sink_9] 0
interdiction[sink_9,sink_18] 0
interdiction[sink_26,sink_4] 0
interdiction[sink_4,sink_20] 1
interdiction[sink_18,sink_6] 0
interdiction[sink_25,innode_8] 0
interdiction[sink_6,sink_7] 0
interdiction[sink_6,sink_22] 0
interdiction[sink_7,sink_24] 0
interdiction[sink_22,sink_1] 0
interdiction[sink_24,sink_21] 0
interdiction[sink_21,sink_12] 0
interdiction[sink_7,sink_5] 0
interdiction[sink_5,sink_17] 0
interdiction[sink_17,sink_4] 1
interdiction[sink_17,sink_8] 0
interdiction[sink_3,sink_23] 0
interdiction[sink_8,sink_20] 0
interdiction[sink_25,sink_20] 0
interdiction[sink_25,sink_15] 0
interdiction[sink_15,sink_29] 0
interdiction[sink_29,sink_28] 0
interdiction[sink_29,sink_2] 0
interdiction[sink_2,sink_15] 0
interdiction[sink_29,innode_7] 0
interdiction[innode_4,sink_19] 0
interdiction[sink_19,innode_3] 0
interdiction[innode_4,innode_5] 0
interdiction[sink_27,innode_5] 0
interdiction[sink_27,sink_19] 0
interdiction[sink_10,sink_11] 0
interdiction[sink_10,innode_2] 0
interdiction[sink_10,innode_3] 0
interdiction[innode_6,sink_25] 0
interdiction[sink_11,innode_1] 0
interdiction[sink_19,innode_2] 0
interdiction[source_3,innode_4] 0
interdiction[source_2,innode_7] 0
interdiction[sink_3,innode_8] 0
WCcheckFlow[source_1,sink_3] 39
WCcheckFlow[innode_1,sink_16] 1
WCcheckFlow[innode_6,sink_13] 13
WCcheckFlow[sink_13,sink_14] 12
WCcheckFlow[sink_14,sink_10] 11
WCcheckFlow[sink_25,sink_26] 0
WCcheckFlow[sink_26,sink_9] -2
WCcheckFlow[sink_9,sink_18] -3
WCcheckFlow[sink_26,sink_4] 1
WCcheckFlow[sink_4,sink_20] 0
WCcheckFlow[sink_18,sink_6] -4
WCcheckFlow[sink_25,innode_8] -36
WCcheckFlow[sink_6,sink_7] -7
WCcheckFlow[sink_6,sink_22] 2
WCcheckFlow[sink_7,sink_24] 3
WCcheckFlow[sink_22,sink_1] 1
WCcheckFlow[sink_24,sink_21] 2
WCcheckFlow[sink_21,sink_12] 1
WCcheckFlow[sink_7,sink_5] -11
WCcheckFlow[sink_5,sink_17] -12
WCcheckFlow[sink_17,sink_4] 0
WCcheckFlow[sink_17,sink_8] -13
WCcheckFlow[sink_3,sink_23] 1
WCcheckFlow[sink_8,sink_20] -14
WCcheckFlow[sink_25,sink_20] 15
WCcheckFlow[sink_25,sink_15] 6
WCcheckFlow[sink_15,sink_29] 5
WCcheckFlow[sink_29,sink_28] 1
WCcheckFlow[sink_29,sink_2] 1
WCcheckFlow[sink_2,sink_15] 0
WCcheckFlow[sink_29,innode_7] 2
WCcheckFlow[innode_4,sink_19] -4
WCcheckFlow[sink_19,innode_3] -5
WCcheckFlow[innode_4,innode_5] 2
WCcheckFlow[sink_27,innode_5] -1
WCcheckFlow[sink_27,sink_19] 0
WCcheckFlow[sink_10,sink_11] 3
WCcheckFlow[sink_10,innode_2] 1
WCcheckFlow[sink_10,innode_3] 6
WCcheckFlow[innode_6,sink_25] -14
WCcheckFlow[sink_11,innode_1] 2
WCcheckFlow[sink_19,innode_2] 0
WCcheckFlow[source_3,innode_4] -1
WCcheckFlow[source_2,innode_7] -1
WCcheckFlow[sink_3,innode_8] 37
